N = 72;
M = 396;
Edge_Start = [1, 1, 1, 1, 2, 2, 2, 3, 3, 3, 3, 4, 4, 5, 5, 5, 6, 6, 6, 6, 7, 8, 8, 8, 9, 9, 9, 9, 10, 11, 12, 12, 12, 12, 13, 13, 13, 14, 14, 14, 15, 15, 16, 16, 16, 16, 17, 17, 18, 18, 18, 19, 20, 21, 21, 21, 22, 22, 23, 23, 23, 24, 24, 24, 25, 25, 25, 26, 26, 26, 26, 27, 27, 27, 28, 28, 28, 29, 29, 29, 30, 30, 30, 31, 31, 31, 31, 32, 32, 32, 33, 33, 33, 34, 34, 34, 35, 35, 35, 36, 36, 37, 37, 37, 38, 39, 39, 39, 40, 41, 42, 43, 43, 43, 44, 45, 45, 45, 46, 46, 46, 47, 47, 47, 47, 48, 48, 48, 49, 49, 49, 50, 50, 50, 51, 51, 51, 52, 52, 52, 53, 53, 53, 54, 54, 54, 55, 55, 56, 56, 56, 57, 57, 58, 58, 58, 59, 59, 59, 60, 60, 60, 60, 61, 61, 61, 62, 62, 62, 63, 63, 63, 64, 64, 64, 64, 65, 65, 65, 66, 66, 66, 67, 67, 67, 68, 68, 68, 69, 69, 70, 70, 71, 71, 71, 72, 72, 72, 4, 6, 31, 55, 45, 57, 71, 12, 31, 46, 68, 1, 32, 39, 60, 72, 1, 9, 54, 68, 70, 13, 18, 63, 6, 51, 52, 64, 21, 53, 3, 35, 58, 64, 8, 15, 23, 43, 60, 65, 13, 17, 18, 47, 48, 65, 15, 33, 8, 16, 43, 62, 27, 10, 22, 56, 21, 29, 13, 24, 33, 23, 25, 34, 24, 26, 37, 25, 27, 30, 37, 20, 26, 28, 27, 29, 40, 22, 28, 44, 26, 56, 63, 1, 3, 32, 45, 4, 31, 57, 17, 23, 34, 24, 33, 37, 12, 39, 59, 47, 70, 25, 26, 34, 62, 5, 35, 71, 28, 56, 53, 14, 18, 61, 29, 2, 31, 46, 3, 45, 58, 16, 36, 49, 63, 16, 49, 51, 47, 48, 50, 49, 51, 52, 9, 48, 50, 9, 50, 54, 11, 42, 72, 6, 52, 55, 1, 54, 21, 30, 41, 2, 32, 12, 46, 71, 35, 60, 67, 5, 14, 59, 66, 43, 62, 69, 19, 38, 61, 8, 30, 47, 9, 12, 67, 68, 14, 16, 66, 60, 65, 67, 59, 64, 66, 3, 6, 64, 61, 72, 7, 36, 2, 39, 58, 5, 53, 69];
Edge_End = [4, 6, 31, 55, 45, 57, 71, 12, 31, 46, 68, 1, 32, 39, 60, 72, 1, 9, 54, 68, 70, 13, 18, 63, 6, 51, 52, 64, 21, 53, 3, 35, 58, 64, 8, 15, 23, 43, 60, 65, 13, 17, 18, 47, 48, 65, 15, 33, 8, 16, 43, 62, 27, 10, 22, 56, 21, 29, 13, 24, 33, 23, 25, 34, 24, 26, 37, 25, 27, 30, 37, 20, 26, 28, 27, 29, 40, 22, 28, 44, 26, 56, 63, 1, 3, 32, 45, 4, 31, 57, 17, 23, 34, 24, 33, 37, 12, 39, 59, 47, 70, 25, 26, 34, 62, 5, 35, 71, 28, 56, 53, 14, 18, 61, 29, 2, 31, 46, 3, 45, 58, 16, 36, 49, 63, 16, 49, 51, 47, 48, 50, 49, 51, 52, 9, 48, 50, 9, 50, 54, 11, 42, 72, 6, 52, 55, 1, 54, 21, 30, 41, 2, 32, 12, 46, 71, 35, 60, 67, 5, 14, 59, 66, 43, 62, 69, 19, 38, 61, 8, 30, 47, 9, 12, 67, 68, 14, 16, 66, 60, 65, 67, 59, 64, 66, 3, 6, 64, 61, 72, 7, 36, 2, 39, 58, 5, 53, 69, 1, 1, 1, 1, 2, 2, 2, 3, 3, 3, 3, 4, 4, 5, 5, 5, 6, 6, 6, 6, 7, 8, 8, 8, 9, 9, 9, 9, 10, 11, 12, 12, 12, 12, 13, 13, 13, 14, 14, 14, 15, 15, 16, 16, 16, 16, 17, 17, 18, 18, 18, 19, 20, 21, 21, 21, 22, 22, 23, 23, 23, 24, 24, 24, 25, 25, 25, 26, 26, 26, 26, 27, 27, 27, 28, 28, 28, 29, 29, 29, 30, 30, 30, 31, 31, 31, 31, 32, 32, 32, 33, 33, 33, 34, 34, 34, 35, 35, 35, 36, 36, 37, 37, 37, 38, 39, 39, 39, 40, 41, 42, 43, 43, 43, 44, 45, 45, 45, 46, 46, 46, 47, 47, 47, 47, 48, 48, 48, 49, 49, 49, 50, 50, 50, 51, 51, 51, 52, 52, 52, 53, 53, 53, 54, 54, 54, 55, 55, 56, 56, 56, 57, 57, 58, 58, 58, 59, 59, 59, 60, 60, 60, 60, 61, 61, 61, 62, 62, 62, 63, 63, 63, 64, 64, 64, 64, 65, 65, 65, 66, 66, 66, 67, 67, 67, 68, 68, 68, 69, 69, 70, 70, 71, 71, 71, 72, 72, 72];
L = [1, 1, 1, 1, 1, 1, 1, 1, 1, 1, 1, 1, 1, 1, 1, 1, 1, 1, 1, 1, 1, 1, 1, 1, 1, 1, 1, 1, 1, 1, 1, 1, 1, 1, 1, 1, 1, 1, 1, 1, 1, 1, 1, 1, 1, 1, 1, 1, 1, 1, 1, 1, 1, 1, 1, 1, 1, 1, 1, 1, 1, 1, 1, 1, 1, 1, 1, 1, 1, 1, 1, 1, 1, 1, 1, 1, 1, 1, 1, 1, 1, 1, 1, 1, 1, 1, 1, 1, 1, 1, 1, 1, 1, 1, 1, 1, 1, 1, 1, 1, 1, 1, 1, 1, 1, 1, 1, 1, 1, 1, 1, 1, 1, 1, 1, 1, 1, 1, 1, 1, 1, 1, 1, 1, 1, 1, 1, 1, 1, 1, 1, 1, 1, 1, 1, 1, 1, 1, 1, 1, 1, 1, 1, 1, 1, 1, 1, 1, 1, 1, 1, 1, 1, 1, 1, 1, 1, 1, 1, 1, 1, 1, 1, 1, 1, 1, 1, 1, 1, 1, 1, 1, 1, 1, 1, 1, 1, 1, 1, 1, 1, 1, 1, 1, 1, 1, 1, 1, 1, 1, 1, 1, 1, 1, 1, 1, 1, 1, 1, 1, 1, 1, 1, 1, 1, 1, 1, 1, 1, 1, 1, 1, 1, 1, 1, 1, 1, 1, 1, 1, 1, 1, 1, 1, 1, 1, 1, 1, 1, 1, 1, 1, 1, 1, 1, 1, 1, 1, 1, 1, 1, 1, 1, 1, 1, 1, 1, 1, 1, 1, 1, 1, 1, 1, 1, 1, 1, 1, 1, 1, 1, 1, 1, 1, 1, 1, 1, 1, 1, 1, 1, 1, 1, 1, 1, 1, 1, 1, 1, 1, 1, 1, 1, 1, 1, 1, 1, 1, 1, 1, 1, 1, 1, 1, 1, 1, 1, 1, 1, 1, 1, 1, 1, 1, 1, 1, 1, 1, 1, 1, 1, 1, 1, 1, 1, 1, 1, 1, 1, 1, 1, 1, 1, 1, 1, 1, 1, 1, 1, 1, 1, 1, 1, 1, 1, 1, 1, 1, 1, 1, 1, 1, 1, 1, 1, 1, 1, 1, 1, 1, 1, 1, 1, 1, 1, 1, 1, 1, 1, 1, 1, 1, 1, 1, 1, 1, 1, 1, 1, 1, 1, 1, 1, 1, 1, 1, 1, 1, 1, 1, 1, 1, 1, 1, 1, 1, 1, 1, 1, 1, 1, 1, 1, 1, 1, 1];
T = [1, 1, 1, 1, 1, 1, 1, 1, 1, 1, 1, 1, 1, 1, 1, 1, 1, 1, 1, 1, 1, 1, 1, 1, 1, 1, 1, 1, 1, 1, 1, 1, 1, 1, 1, 1, 1, 1, 1, 1, 1, 1, 1, 1, 1, 1, 1, 1, 1, 1, 1, 1, 1, 1, 1, 1, 1, 1, 1, 1, 1, 1, 1, 1, 1, 1, 1, 1, 1, 1, 1, 1, 1, 1, 1, 1, 1, 1, 1, 1, 1, 1, 1, 1, 1, 1, 1, 1, 1, 1, 1, 1, 1, 1, 1, 1, 1, 1, 1, 1, 1, 1, 1, 1, 1, 1, 1, 1, 1, 1, 1, 1, 1, 1, 1, 1, 1, 1, 1, 1, 1, 1, 1, 1, 1, 1, 1, 1, 1, 1, 1, 1, 1, 1, 1, 1, 1, 1, 1, 1, 1, 1, 1, 1, 1, 1, 1, 1, 1, 1, 1, 1, 1, 1, 1, 1, 1, 1, 1, 1, 1, 1, 1, 1, 1, 1, 1, 1, 1, 1, 1, 1, 1, 1, 1, 1, 1, 1, 1, 1, 1, 1, 1, 1, 1, 1, 1, 1, 1, 1, 1, 1, 1, 1, 1, 1, 1, 1, 1, 1, 1, 1, 1, 1, 1, 1, 1, 1, 1, 1, 1, 1, 1, 1, 1, 1, 1, 1, 1, 1, 1, 1, 1, 1, 1, 1, 1, 1, 1, 1, 1, 1, 1, 1, 1, 1, 1, 1, 1, 1, 1, 1, 1, 1, 1, 1, 1, 1, 1, 1, 1, 1, 1, 1, 1, 1, 1, 1, 1, 1, 1, 1, 1, 1, 1, 1, 1, 1, 1, 1, 1, 1, 1, 1, 1, 1, 1, 1, 1, 1, 1, 1, 1, 1, 1, 1, 1, 1, 1, 1, 1, 1, 1, 1, 1, 1, 1, 1, 1, 1, 1, 1, 1, 1, 1, 1, 1, 1, 1, 1, 1, 1, 1, 1, 1, 1, 1, 1, 1, 1, 1, 1, 1, 1, 1, 1, 1, 1, 1, 1, 1, 1, 1, 1, 1, 1, 1, 1, 1, 1, 1, 1, 1, 1, 1, 1, 1, 1, 1, 1, 1, 1, 1, 1, 1, 1, 1, 1, 1, 1, 1, 1, 1, 1, 1, 1, 1, 1, 1, 1, 1, 1, 1, 1, 1, 1, 1, 1, 1, 1, 1, 1, 1, 1, 1, 1, 1, 1, 1, 1, 1, 1, 1, 1, 1, 1];
Lower_Bound = [11, 15, 12, 12, 10, 11, 9, 6, 9, 4, 12, 11, 6, 8, 7, 6, 7, 6, 10, 2, 4, 2, 5, 4, 3, 2, 1, 1, 1, 3, 12, 14, 5, 5, 13, 8, 3, 10, 14, 1, 5, 13, 7, 2, 13, 13, 5, 7, 6, 7, 8, 9, 12, 10, 11, 4, 14, 12, 10, 13, 8, 12, 5, 11, 8, 8, 9, 11, 10, 8, 13, 11];
Upper_Bound = [15, 16, 13, 16, 11, 23, 12, 15, 11, 5, 14, 14, 15, 9, 25, 7, 9, 7, 13, 6, 5, 9, 10, 5, 7, 8, 2, 8, 3, 9, 19, 18, 7, 10, 15, 10, 5, 12, 19, 7, 8, 17, 14, 6, 22, 17, 14, 11, 8, 10, 18, 24, 16, 12, 16, 5, 25, 22, 12, 15, 9, 17, 7, 18, 13, 16, 10, 15, 17, 20, 14, 12];
Start = 28;
End = 39;
Time = 19;
